param T := 1;
set ROBOTS :=
  0,
  1,
;
set LOCATIONS :=
  0,
  1,
  2,
;
set TIMES_ROBOTS_LOCATIONS[0, 0] :=
  0,
;
set TIMES_ROBOTS_LOCATIONS[0, 1] :=
  1,
;
set TIMES_ROBOTS_LOCATIONS[1, 0] :=
  0,
  1,
;
set TIMES_ROBOTS_LOCATIONS[1, 1] :=
  1,
  2,
;
param cost :=
0 0 4
0 1 2
1 1 3
1 2 2
;
